6908.0
[1, 1, 1, 1, 1, 1, 1, 0, 1, 1]
[5, 6, 4, 1, 2, 9, 3, 3, 8, 8, 4, 6, 2, 6, 2, 2, 5, 3, 0, 6, 6, 1, 4, 1, 6, 5, 5, 4, 8, 5, 8, 0, 0, 0, 3, 9, 2, 6, 6, 9, 2, 3, 3, 3, 3, 5, 0, 5, 6, 4, 1, 1, 6, 6, 2, 9, 2, 8, 8, 8, 0, 0, 1, 5, 0, 6, 6, 6, 4, 4, 0, 4, 4, 0, 3, 9, 2, 2, 6, 5, 5, 2, 2, 9, 9, 9, 9, 9, 9, 2]